;;; OOOOO
;;; O   O
;;; O O O
;;; O O O
;;; OOOOO

(set-logic ALL)
(set-option :produce-models true)
(declare-var s0  (_ BitVec 81))
(declare-var s1  (_ BitVec 81))

;;; Auxiliary functions
(define-fun getBitAt ((bvector (_ BitVec 81)) (x Int)) Bool
(ite (= x 0) (= (bvand bvector #b000000000000000000000000000000000000000000000000000000000000000000000000000000001) #b000000000000000000000000000000000000000000000000000000000000000000000000000000001)
 (ite (= x 1) (= (bvand bvector #b000000000000000000000000000000000000000000000000000000000000000000000000000000010) #b000000000000000000000000000000000000000000000000000000000000000000000000000000010)
  (ite (= x 2) (= (bvand bvector #b000000000000000000000000000000000000000000000000000000000000000000000000000000100) #b000000000000000000000000000000000000000000000000000000000000000000000000000000100)
   (ite (= x 3) (= (bvand bvector #b000000000000000000000000000000000000000000000000000000000000000000000000000001000) #b000000000000000000000000000000000000000000000000000000000000000000000000000001000)
    (ite (= x 4) (= (bvand bvector #b000000000000000000000000000000000000000000000000000000000000000000000000000010000) #b000000000000000000000000000000000000000000000000000000000000000000000000000010000)
     (ite (= x 5) (= (bvand bvector #b000000000000000000000000000000000000000000000000000000000000000000000000000100000) #b000000000000000000000000000000000000000000000000000000000000000000000000000100000)
      (ite (= x 6) (= (bvand bvector #b000000000000000000000000000000000000000000000000000000000000000000000000001000000) #b000000000000000000000000000000000000000000000000000000000000000000000000001000000)
       (ite (= x 7) (= (bvand bvector #b000000000000000000000000000000000000000000000000000000000000000000000000010000000) #b000000000000000000000000000000000000000000000000000000000000000000000000010000000)
        (ite (= x 8) (= (bvand bvector #b000000000000000000000000000000000000000000000000000000000000000000000000100000000) #b000000000000000000000000000000000000000000000000000000000000000000000000100000000)
         (ite (= x 9) (= (bvand bvector #b000000000000000000000000000000000000000000000000000000000000000000000001000000000) #b000000000000000000000000000000000000000000000000000000000000000000000001000000000)
          (ite (= x 10) (= (bvand bvector #b000000000000000000000000000000000000000000000000000000000000000000000010000000000) #b000000000000000000000000000000000000000000000000000000000000000000000010000000000)
           (ite (= x 11) (= (bvand bvector #b000000000000000000000000000000000000000000000000000000000000000000000100000000000) #b000000000000000000000000000000000000000000000000000000000000000000000100000000000)
            (ite (= x 12) (= (bvand bvector #b000000000000000000000000000000000000000000000000000000000000000000001000000000000) #b000000000000000000000000000000000000000000000000000000000000000000001000000000000)
             (ite (= x 13) (= (bvand bvector #b000000000000000000000000000000000000000000000000000000000000000000010000000000000) #b000000000000000000000000000000000000000000000000000000000000000000010000000000000)
              (ite (= x 14) (= (bvand bvector #b000000000000000000000000000000000000000000000000000000000000000000100000000000000) #b000000000000000000000000000000000000000000000000000000000000000000100000000000000)
               (ite (= x 15) (= (bvand bvector #b000000000000000000000000000000000000000000000000000000000000000001000000000000000) #b000000000000000000000000000000000000000000000000000000000000000001000000000000000)
                (ite (= x 16) (= (bvand bvector #b000000000000000000000000000000000000000000000000000000000000000010000000000000000) #b000000000000000000000000000000000000000000000000000000000000000010000000000000000)
                 (ite (= x 17) (= (bvand bvector #b000000000000000000000000000000000000000000000000000000000000000100000000000000000) #b000000000000000000000000000000000000000000000000000000000000000100000000000000000)
                  (ite (= x 18) (= (bvand bvector #b000000000000000000000000000000000000000000000000000000000000001000000000000000000) #b000000000000000000000000000000000000000000000000000000000000001000000000000000000)
                   (ite (= x 19) (= (bvand bvector #b000000000000000000000000000000000000000000000000000000000000010000000000000000000) #b000000000000000000000000000000000000000000000000000000000000010000000000000000000)
                    (ite (= x 20) (= (bvand bvector #b000000000000000000000000000000000000000000000000000000000000100000000000000000000) #b000000000000000000000000000000000000000000000000000000000000100000000000000000000)
                     (ite (= x 21) (= (bvand bvector #b000000000000000000000000000000000000000000000000000000000001000000000000000000000) #b000000000000000000000000000000000000000000000000000000000001000000000000000000000)
                      (ite (= x 22) (= (bvand bvector #b000000000000000000000000000000000000000000000000000000000010000000000000000000000) #b000000000000000000000000000000000000000000000000000000000010000000000000000000000)
                       (ite (= x 23) (= (bvand bvector #b000000000000000000000000000000000000000000000000000000000100000000000000000000000) #b000000000000000000000000000000000000000000000000000000000100000000000000000000000)
                        (ite (= x 24) (= (bvand bvector #b000000000000000000000000000000000000000000000000000000001000000000000000000000000) #b000000000000000000000000000000000000000000000000000000001000000000000000000000000)
                         (ite (= x 25) (= (bvand bvector #b000000000000000000000000000000000000000000000000000000010000000000000000000000000) #b000000000000000000000000000000000000000000000000000000010000000000000000000000000)
                          (ite (= x 26) (= (bvand bvector #b000000000000000000000000000000000000000000000000000000100000000000000000000000000) #b000000000000000000000000000000000000000000000000000000100000000000000000000000000)
                           (ite (= x 27) (= (bvand bvector #b000000000000000000000000000000000000000000000000000001000000000000000000000000000) #b000000000000000000000000000000000000000000000000000001000000000000000000000000000)
                            (ite (= x 28) (= (bvand bvector #b000000000000000000000000000000000000000000000000000010000000000000000000000000000) #b000000000000000000000000000000000000000000000000000010000000000000000000000000000)
                             (ite (= x 29) (= (bvand bvector #b000000000000000000000000000000000000000000000000000100000000000000000000000000000) #b000000000000000000000000000000000000000000000000000100000000000000000000000000000)
                              (ite (= x 30) (= (bvand bvector #b000000000000000000000000000000000000000000000000001000000000000000000000000000000) #b000000000000000000000000000000000000000000000000001000000000000000000000000000000)
                               (ite (= x 31) (= (bvand bvector #b000000000000000000000000000000000000000000000000010000000000000000000000000000000) #b000000000000000000000000000000000000000000000000010000000000000000000000000000000)
                                (ite (= x 32) (= (bvand bvector #b000000000000000000000000000000000000000000000000100000000000000000000000000000000) #b000000000000000000000000000000000000000000000000100000000000000000000000000000000)
                                 (ite (= x 33) (= (bvand bvector #b000000000000000000000000000000000000000000000001000000000000000000000000000000000) #b000000000000000000000000000000000000000000000001000000000000000000000000000000000)
                                  (ite (= x 34) (= (bvand bvector #b000000000000000000000000000000000000000000000010000000000000000000000000000000000) #b000000000000000000000000000000000000000000000010000000000000000000000000000000000)
                                   (ite (= x 35) (= (bvand bvector #b000000000000000000000000000000000000000000000100000000000000000000000000000000000) #b000000000000000000000000000000000000000000000100000000000000000000000000000000000)
                                    (ite (= x 36) (= (bvand bvector #b000000000000000000000000000000000000000000001000000000000000000000000000000000000) #b000000000000000000000000000000000000000000001000000000000000000000000000000000000)
                                     (ite (= x 37) (= (bvand bvector #b000000000000000000000000000000000000000000010000000000000000000000000000000000000) #b000000000000000000000000000000000000000000010000000000000000000000000000000000000)
                                      (ite (= x 38) (= (bvand bvector #b000000000000000000000000000000000000000000100000000000000000000000000000000000000) #b000000000000000000000000000000000000000000100000000000000000000000000000000000000)
                                       (ite (= x 39) (= (bvand bvector #b000000000000000000000000000000000000000001000000000000000000000000000000000000000) #b000000000000000000000000000000000000000001000000000000000000000000000000000000000)
                                        (ite (= x 40) (= (bvand bvector #b000000000000000000000000000000000000000010000000000000000000000000000000000000000) #b000000000000000000000000000000000000000010000000000000000000000000000000000000000)
                                         (ite (= x 41) (= (bvand bvector #b000000000000000000000000000000000000000100000000000000000000000000000000000000000) #b000000000000000000000000000000000000000100000000000000000000000000000000000000000)
                                          (ite (= x 42) (= (bvand bvector #b000000000000000000000000000000000000001000000000000000000000000000000000000000000) #b000000000000000000000000000000000000001000000000000000000000000000000000000000000)
                                           (ite (= x 43) (= (bvand bvector #b000000000000000000000000000000000000010000000000000000000000000000000000000000000) #b000000000000000000000000000000000000010000000000000000000000000000000000000000000)
                                            (ite (= x 44) (= (bvand bvector #b000000000000000000000000000000000000100000000000000000000000000000000000000000000) #b000000000000000000000000000000000000100000000000000000000000000000000000000000000)
                                             (ite (= x 45) (= (bvand bvector #b000000000000000000000000000000000001000000000000000000000000000000000000000000000) #b000000000000000000000000000000000001000000000000000000000000000000000000000000000)
                                              (ite (= x 46) (= (bvand bvector #b000000000000000000000000000000000010000000000000000000000000000000000000000000000) #b000000000000000000000000000000000010000000000000000000000000000000000000000000000)
                                               (ite (= x 47) (= (bvand bvector #b000000000000000000000000000000000100000000000000000000000000000000000000000000000) #b000000000000000000000000000000000100000000000000000000000000000000000000000000000)
                                                (ite (= x 48) (= (bvand bvector #b000000000000000000000000000000001000000000000000000000000000000000000000000000000) #b000000000000000000000000000000001000000000000000000000000000000000000000000000000)
                                                 (ite (= x 49) (= (bvand bvector #b000000000000000000000000000000010000000000000000000000000000000000000000000000000) #b000000000000000000000000000000010000000000000000000000000000000000000000000000000)
                                                  (ite (= x 50) (= (bvand bvector #b000000000000000000000000000000100000000000000000000000000000000000000000000000000) #b000000000000000000000000000000100000000000000000000000000000000000000000000000000)
                                                   (ite (= x 51) (= (bvand bvector #b000000000000000000000000000001000000000000000000000000000000000000000000000000000) #b000000000000000000000000000001000000000000000000000000000000000000000000000000000)
                                                    (ite (= x 52) (= (bvand bvector #b000000000000000000000000000010000000000000000000000000000000000000000000000000000) #b000000000000000000000000000010000000000000000000000000000000000000000000000000000)
                                                     (ite (= x 53) (= (bvand bvector #b000000000000000000000000000100000000000000000000000000000000000000000000000000000) #b000000000000000000000000000100000000000000000000000000000000000000000000000000000)
                                                      (ite (= x 54) (= (bvand bvector #b000000000000000000000000001000000000000000000000000000000000000000000000000000000) #b000000000000000000000000001000000000000000000000000000000000000000000000000000000)
                                                       (ite (= x 55) (= (bvand bvector #b000000000000000000000000010000000000000000000000000000000000000000000000000000000) #b000000000000000000000000010000000000000000000000000000000000000000000000000000000)
                                                        (ite (= x 56) (= (bvand bvector #b000000000000000000000000100000000000000000000000000000000000000000000000000000000) #b000000000000000000000000100000000000000000000000000000000000000000000000000000000)
                                                         (ite (= x 57) (= (bvand bvector #b000000000000000000000001000000000000000000000000000000000000000000000000000000000) #b000000000000000000000001000000000000000000000000000000000000000000000000000000000)
                                                          (ite (= x 58) (= (bvand bvector #b000000000000000000000010000000000000000000000000000000000000000000000000000000000) #b000000000000000000000010000000000000000000000000000000000000000000000000000000000)
                                                           (ite (= x 59) (= (bvand bvector #b000000000000000000000100000000000000000000000000000000000000000000000000000000000) #b000000000000000000000100000000000000000000000000000000000000000000000000000000000)
                                                            (ite (= x 60) (= (bvand bvector #b000000000000000000001000000000000000000000000000000000000000000000000000000000000) #b000000000000000000001000000000000000000000000000000000000000000000000000000000000)
                                                             (ite (= x 61) (= (bvand bvector #b000000000000000000010000000000000000000000000000000000000000000000000000000000000) #b000000000000000000010000000000000000000000000000000000000000000000000000000000000)
                                                              (ite (= x 62) (= (bvand bvector #b000000000000000000100000000000000000000000000000000000000000000000000000000000000) #b000000000000000000100000000000000000000000000000000000000000000000000000000000000)
                                                               (ite (= x 63) (= (bvand bvector #b000000000000000001000000000000000000000000000000000000000000000000000000000000000) #b000000000000000001000000000000000000000000000000000000000000000000000000000000000)
                                                                (ite (= x 64) (= (bvand bvector #b000000000000000010000000000000000000000000000000000000000000000000000000000000000) #b000000000000000010000000000000000000000000000000000000000000000000000000000000000)
                                                                 (ite (= x 65) (= (bvand bvector #b000000000000000100000000000000000000000000000000000000000000000000000000000000000) #b000000000000000100000000000000000000000000000000000000000000000000000000000000000)
                                                                  (ite (= x 66) (= (bvand bvector #b000000000000001000000000000000000000000000000000000000000000000000000000000000000) #b000000000000001000000000000000000000000000000000000000000000000000000000000000000)
                                                                   (ite (= x 67) (= (bvand bvector #b000000000000010000000000000000000000000000000000000000000000000000000000000000000) #b000000000000010000000000000000000000000000000000000000000000000000000000000000000)
                                                                    (ite (= x 68) (= (bvand bvector #b000000000000100000000000000000000000000000000000000000000000000000000000000000000) #b000000000000100000000000000000000000000000000000000000000000000000000000000000000)
                                                                     (ite (= x 69) (= (bvand bvector #b000000000001000000000000000000000000000000000000000000000000000000000000000000000) #b000000000001000000000000000000000000000000000000000000000000000000000000000000000)
                                                                      (ite (= x 70) (= (bvand bvector #b000000000010000000000000000000000000000000000000000000000000000000000000000000000) #b000000000010000000000000000000000000000000000000000000000000000000000000000000000)
                                                                       (ite (= x 71) (= (bvand bvector #b000000000100000000000000000000000000000000000000000000000000000000000000000000000) #b000000000100000000000000000000000000000000000000000000000000000000000000000000000)
                                                                        (ite (= x 72) (= (bvand bvector #b000000001000000000000000000000000000000000000000000000000000000000000000000000000) #b000000001000000000000000000000000000000000000000000000000000000000000000000000000)
                                                                         (ite (= x 73) (= (bvand bvector #b000000010000000000000000000000000000000000000000000000000000000000000000000000000) #b000000010000000000000000000000000000000000000000000000000000000000000000000000000)
                                                                          (ite (= x 74) (= (bvand bvector #b000000100000000000000000000000000000000000000000000000000000000000000000000000000) #b000000100000000000000000000000000000000000000000000000000000000000000000000000000)
                                                                           (ite (= x 75) (= (bvand bvector #b000001000000000000000000000000000000000000000000000000000000000000000000000000000) #b000001000000000000000000000000000000000000000000000000000000000000000000000000000)
                                                                            (ite (= x 76) (= (bvand bvector #b000010000000000000000000000000000000000000000000000000000000000000000000000000000) #b000010000000000000000000000000000000000000000000000000000000000000000000000000000)
                                                                             (ite (= x 77) (= (bvand bvector #b000100000000000000000000000000000000000000000000000000000000000000000000000000000) #b000100000000000000000000000000000000000000000000000000000000000000000000000000000)
                                                                              (ite (= x 78) (= (bvand bvector #b001000000000000000000000000000000000000000000000000000000000000000000000000000000) #b001000000000000000000000000000000000000000000000000000000000000000000000000000000)
                                                                               (ite (= x 79) (= (bvand bvector #b010000000000000000000000000000000000000000000000000000000000000000000000000000000) #b010000000000000000000000000000000000000000000000000000000000000000000000000000000)
                                                                                (ite (= x 80) (= (bvand bvector #b100000000000000000000000000000000000000000000000000000000000000000000000000000000) #b100000000000000000000000000000000000000000000000000000000000000000000000000000000)
false))))))))))))))))))))))))))))))))))))))))))))))))))))))))))))))))))))))))))))))))))

(define-fun setBitAt ((bvector (_ BitVec 81)) (x Int)) (_ BitVec 81)
(ite (= x 0) (bvor bvector #b000000000000000000000000000000000000000000000000000000000000000000000000000000001)
 (ite (= x 1) (bvor bvector #b000000000000000000000000000000000000000000000000000000000000000000000000000000010)
  (ite (= x 2) (bvor bvector #b000000000000000000000000000000000000000000000000000000000000000000000000000000100)
   (ite (= x 3) (bvor bvector #b000000000000000000000000000000000000000000000000000000000000000000000000000001000)
    (ite (= x 4) (bvor bvector #b000000000000000000000000000000000000000000000000000000000000000000000000000010000)
     (ite (= x 5) (bvor bvector #b000000000000000000000000000000000000000000000000000000000000000000000000000100000)
      (ite (= x 6) (bvor bvector #b000000000000000000000000000000000000000000000000000000000000000000000000001000000)
       (ite (= x 7) (bvor bvector #b000000000000000000000000000000000000000000000000000000000000000000000000010000000)
        (ite (= x 8) (bvor bvector #b000000000000000000000000000000000000000000000000000000000000000000000000100000000)
         (ite (= x 9) (bvor bvector #b000000000000000000000000000000000000000000000000000000000000000000000001000000000)
          (ite (= x 10) (bvor bvector #b000000000000000000000000000000000000000000000000000000000000000000000010000000000)
           (ite (= x 11) (bvor bvector #b000000000000000000000000000000000000000000000000000000000000000000000100000000000)
            (ite (= x 12) (bvor bvector #b000000000000000000000000000000000000000000000000000000000000000000001000000000000)
             (ite (= x 13) (bvor bvector #b000000000000000000000000000000000000000000000000000000000000000000010000000000000)
              (ite (= x 14) (bvor bvector #b000000000000000000000000000000000000000000000000000000000000000000100000000000000)
               (ite (= x 15) (bvor bvector #b000000000000000000000000000000000000000000000000000000000000000001000000000000000)
                (ite (= x 16) (bvor bvector #b000000000000000000000000000000000000000000000000000000000000000010000000000000000)
                 (ite (= x 17) (bvor bvector #b000000000000000000000000000000000000000000000000000000000000000100000000000000000)
                  (ite (= x 18) (bvor bvector #b000000000000000000000000000000000000000000000000000000000000001000000000000000000)
                   (ite (= x 19) (bvor bvector #b000000000000000000000000000000000000000000000000000000000000010000000000000000000)
                    (ite (= x 20) (bvor bvector #b000000000000000000000000000000000000000000000000000000000000100000000000000000000)
                     (ite (= x 21) (bvor bvector #b000000000000000000000000000000000000000000000000000000000001000000000000000000000)
                      (ite (= x 22) (bvor bvector #b000000000000000000000000000000000000000000000000000000000010000000000000000000000)
                       (ite (= x 23) (bvor bvector #b000000000000000000000000000000000000000000000000000000000100000000000000000000000)
                        (ite (= x 24) (bvor bvector #b000000000000000000000000000000000000000000000000000000001000000000000000000000000)
                         (ite (= x 25) (bvor bvector #b000000000000000000000000000000000000000000000000000000010000000000000000000000000)
                          (ite (= x 26) (bvor bvector #b000000000000000000000000000000000000000000000000000000100000000000000000000000000)
                           (ite (= x 27) (bvor bvector #b000000000000000000000000000000000000000000000000000001000000000000000000000000000)
                            (ite (= x 28) (bvor bvector #b000000000000000000000000000000000000000000000000000010000000000000000000000000000)
                             (ite (= x 29) (bvor bvector #b000000000000000000000000000000000000000000000000000100000000000000000000000000000)
                              (ite (= x 30) (bvor bvector #b000000000000000000000000000000000000000000000000001000000000000000000000000000000)
                               (ite (= x 31) (bvor bvector #b000000000000000000000000000000000000000000000000010000000000000000000000000000000)
                                (ite (= x 32) (bvor bvector #b000000000000000000000000000000000000000000000000100000000000000000000000000000000)
                                 (ite (= x 33) (bvor bvector #b000000000000000000000000000000000000000000000001000000000000000000000000000000000)
                                  (ite (= x 34) (bvor bvector #b000000000000000000000000000000000000000000000010000000000000000000000000000000000)
                                   (ite (= x 35) (bvor bvector #b000000000000000000000000000000000000000000000100000000000000000000000000000000000)
                                    (ite (= x 36) (bvor bvector #b000000000000000000000000000000000000000000001000000000000000000000000000000000000)
                                     (ite (= x 37) (bvor bvector #b000000000000000000000000000000000000000000010000000000000000000000000000000000000)
                                      (ite (= x 38) (bvor bvector #b000000000000000000000000000000000000000000100000000000000000000000000000000000000)
                                       (ite (= x 39) (bvor bvector #b000000000000000000000000000000000000000001000000000000000000000000000000000000000)
                                        (ite (= x 40) (bvor bvector #b000000000000000000000000000000000000000010000000000000000000000000000000000000000)
                                         (ite (= x 41) (bvor bvector #b000000000000000000000000000000000000000100000000000000000000000000000000000000000)
                                          (ite (= x 42) (bvor bvector #b000000000000000000000000000000000000001000000000000000000000000000000000000000000)
                                           (ite (= x 43) (bvor bvector #b000000000000000000000000000000000000010000000000000000000000000000000000000000000)
                                            (ite (= x 44) (bvor bvector #b000000000000000000000000000000000000100000000000000000000000000000000000000000000)
                                             (ite (= x 45) (bvor bvector #b000000000000000000000000000000000001000000000000000000000000000000000000000000000)
                                              (ite (= x 46) (bvor bvector #b000000000000000000000000000000000010000000000000000000000000000000000000000000000)
                                               (ite (= x 47) (bvor bvector #b000000000000000000000000000000000100000000000000000000000000000000000000000000000)
                                                (ite (= x 48) (bvor bvector #b000000000000000000000000000000001000000000000000000000000000000000000000000000000)
                                                 (ite (= x 49) (bvor bvector #b000000000000000000000000000000010000000000000000000000000000000000000000000000000)
                                                  (ite (= x 50) (bvor bvector #b000000000000000000000000000000100000000000000000000000000000000000000000000000000)
                                                   (ite (= x 51) (bvor bvector #b000000000000000000000000000001000000000000000000000000000000000000000000000000000)
                                                    (ite (= x 52) (bvor bvector #b000000000000000000000000000010000000000000000000000000000000000000000000000000000)
                                                     (ite (= x 53) (bvor bvector #b000000000000000000000000000100000000000000000000000000000000000000000000000000000)
                                                      (ite (= x 54) (bvor bvector #b000000000000000000000000001000000000000000000000000000000000000000000000000000000)
                                                       (ite (= x 55) (bvor bvector #b000000000000000000000000010000000000000000000000000000000000000000000000000000000)
                                                        (ite (= x 56) (bvor bvector #b000000000000000000000000100000000000000000000000000000000000000000000000000000000)
                                                         (ite (= x 57) (bvor bvector #b000000000000000000000001000000000000000000000000000000000000000000000000000000000)
                                                          (ite (= x 58) (bvor bvector #b000000000000000000000010000000000000000000000000000000000000000000000000000000000)
                                                           (ite (= x 59) (bvor bvector #b000000000000000000000100000000000000000000000000000000000000000000000000000000000)
                                                            (ite (= x 60) (bvor bvector #b000000000000000000001000000000000000000000000000000000000000000000000000000000000)
                                                             (ite (= x 61) (bvor bvector #b000000000000000000010000000000000000000000000000000000000000000000000000000000000)
                                                              (ite (= x 62) (bvor bvector #b000000000000000000100000000000000000000000000000000000000000000000000000000000000)
                                                               (ite (= x 63) (bvor bvector #b000000000000000001000000000000000000000000000000000000000000000000000000000000000)
                                                                (ite (= x 64) (bvor bvector #b000000000000000010000000000000000000000000000000000000000000000000000000000000000)
                                                                 (ite (= x 65) (bvor bvector #b000000000000000100000000000000000000000000000000000000000000000000000000000000000)
                                                                  (ite (= x 66) (bvor bvector #b000000000000001000000000000000000000000000000000000000000000000000000000000000000)
                                                                   (ite (= x 67) (bvor bvector #b000000000000010000000000000000000000000000000000000000000000000000000000000000000)
                                                                    (ite (= x 68) (bvor bvector #b000000000000100000000000000000000000000000000000000000000000000000000000000000000)
                                                                     (ite (= x 69) (bvor bvector #b000000000001000000000000000000000000000000000000000000000000000000000000000000000)
                                                                      (ite (= x 70) (bvor bvector #b000000000010000000000000000000000000000000000000000000000000000000000000000000000)
                                                                       (ite (= x 71) (bvor bvector #b000000000100000000000000000000000000000000000000000000000000000000000000000000000)
                                                                        (ite (= x 72) (bvor bvector #b000000001000000000000000000000000000000000000000000000000000000000000000000000000)
                                                                         (ite (= x 73) (bvor bvector #b000000010000000000000000000000000000000000000000000000000000000000000000000000000)
                                                                          (ite (= x 74) (bvor bvector #b000000100000000000000000000000000000000000000000000000000000000000000000000000000)
                                                                           (ite (= x 75) (bvor bvector #b000001000000000000000000000000000000000000000000000000000000000000000000000000000)
                                                                            (ite (= x 76) (bvor bvector #b000010000000000000000000000000000000000000000000000000000000000000000000000000000)
                                                                             (ite (= x 77) (bvor bvector #b000100000000000000000000000000000000000000000000000000000000000000000000000000000)
                                                                              (ite (= x 78) (bvor bvector #b001000000000000000000000000000000000000000000000000000000000000000000000000000000)
                                                                               (ite (= x 79) (bvor bvector #b010000000000000000000000000000000000000000000000000000000000000000000000000000000)
                                                                                (ite (= x 80) (bvor bvector #b100000000000000000000000000000000000000000000000000000000000000000000000000000000)
bvector))))))))))))))))))))))))))))))))))))))))))))))))))))))))))))))))))))))))))))))))))

;;; Planning functions
(define-fun connect ((s (_ BitVec 81)) (x Int) (y Int) (z Int)) (_ BitVec 81)
 (ite (and (getBitAt s (+ (* x 9) y))
           (getBitAt s (+ (* y 9) z)))
           (setBitAt (setBitAt s (+ (* x 9) z)) (+ (* z 9) x))
           s))

(synth-fun plan ((s (_ BitVec 81))) (_ BitVec 81)
 ((Start (_ BitVec 81)) (I1 Int ) (I2 Int ) (I3 Int ))
 ((Start (_ BitVec 81) (s (connect Start I1 I2 I3)))
  (I1 Int (0  1  2  3  4  5  6  7  8  9  10  11  12  13  14  15  16  17  18  19  20  21  22  23  24  25  26  27  28  29  30  31  32  33  34  35  36  37  38  39  40  41  42  43  44  45  46  47  48  49  50  51  52  53  54  55  56  57  58  59  60  61  62  63  64  65  66  67  68  69  70  71  72  73  74  75  76  77  78  79  80))
  (I2 Int (0  1  2  3  4  5  6  7  8  9  10  11  12  13  14  15  16  17  18  19  20  21  22  23  24  25  26  27  28  29  30  31  32  33  34  35  36  37  38  39  40  41  42  43  44  45  46  47  48  49  50  51  52  53  54  55  56  57  58  59  60  61  62  63  64  65  66  67  68  69  70  71  72  73  74  75  76  77  78  79  80))
  (I3 Int (0  1  2  3  4  5  6  7  8  9  10  11  12  13  14  15  16  17  18  19  20  21  22  23  24  25  26  27  28  29  30  31  32  33  34  35  36  37  38  39  40  41  42  43  44  45  46  47  48  49  50  51  52  53  54  55  56  57  58  59  60  61  62  63  64  65  66  67  68  69  70  71  72  73  74  75  76  77  78  79  80))
))
;;; Semantic constraints
(constraint (= s0 #b101101111000000000101101111101101111000000000101101111101101111101101111101101111))
(constraint (= (bvand s1 #b100000000000000000000000000000000000000000000000000000000000000000000000000000001) #b100000000000000000000000000000000000000000000000000000000000000000000000000000001))

(constraint (= s1 (plan s0)))

(check-synth)
